8
Lattice="5.124925136566162 0.0 0.07431712001562119 -0.07999213146523394 5.181996962167078 0.9651846885681152 0.0 0.0 5.274908542633057" Properties=species:S:1:pos:R:3 pbc="T T T"
Mg       0.63473243       1.22407172       2.55852169
Mg       4.44278776       0.43912450       5.25478614
Mg       0.60699074       3.17250019       4.90458124
Ru       0.70776273       3.88989932       2.32489772
Ru       2.98108401       2.16279798       3.79790717
Mg       3.04754484       4.83208586       3.56730698
Mg       3.07992199       2.88162208       1.21278645
Ru       1.88068140       0.43726282       5.21864540
6
Lattice="4.345182418823242 0.0 -1.475813865661621 -0.003889458273135166 4.976258188398668 0.0013190958416089416 0.0 0.0 7.159937858581543" Properties=species:S:1:pos:R:3 pbc="T T T"
Ga       1.35725634       0.09609774       3.58611905
Ca       4.19725892       0.09493419       4.82113988
Ca       0.72379388       2.58232827       1.71608780
Ga       3.55986610       2.58383830       2.95136703
Tl       2.90388603       0.09515033       0.98930178
Tl       2.01676332       2.58353131       5.55005806
